c *********************************
c * Circuit generated by BenCGen
c *
c * CarryLookaheadBlock_67_67_67_InOutT
c *
c * Ports with 1 gate(s): 2
c * Ports with 2 gate(s): 286
c * Ports with 3 gate(s): 67
c * Ports with 4 gate(s): 50
c * Ports with 5 gate(s): 32
c * Total gates: 437
c *********************************
p cnf 571 1706
1 204 0
-1 -204 0
1 -203 0
204 -203 0
-1 -204 203 0
1 68 -205 0
-1 68 205 0
1 -68 205 0
-1 -68 -205 0
1 -272 0
68 -272 0
-1 -68 272 0
2 69 -206 0
-2 69 206 0
2 -69 206 0
-2 -69 -206 0
2 -273 0
69 -273 0
-2 -69 273 0
3 70 -207 0
-3 70 207 0
3 -70 207 0
-3 -70 -207 0
3 -274 0
70 -274 0
-3 -70 274 0
4 71 -208 0
-4 71 208 0
4 -71 208 0
-4 -71 -208 0
4 -275 0
71 -275 0
-4 -71 275 0
5 72 -209 0
-5 72 209 0
5 -72 209 0
-5 -72 -209 0
5 -276 0
72 -276 0
-5 -72 276 0
6 73 -210 0
-6 73 210 0
6 -73 210 0
-6 -73 -210 0
6 -277 0
73 -277 0
-6 -73 277 0
7 74 -211 0
-7 74 211 0
7 -74 211 0
-7 -74 -211 0
7 -278 0
74 -278 0
-7 -74 278 0
8 75 -212 0
-8 75 212 0
8 -75 212 0
-8 -75 -212 0
8 -279 0
75 -279 0
-8 -75 279 0
9 76 -213 0
-9 76 213 0
9 -76 213 0
-9 -76 -213 0
9 -280 0
76 -280 0
-9 -76 280 0
10 77 -214 0
-10 77 214 0
10 -77 214 0
-10 -77 -214 0
10 -281 0
77 -281 0
-10 -77 281 0
11 78 -215 0
-11 78 215 0
11 -78 215 0
-11 -78 -215 0
11 -282 0
78 -282 0
-11 -78 282 0
12 79 -216 0
-12 79 216 0
12 -79 216 0
-12 -79 -216 0
12 -283 0
79 -283 0
-12 -79 283 0
13 80 -217 0
-13 80 217 0
13 -80 217 0
-13 -80 -217 0
13 -284 0
80 -284 0
-13 -80 284 0
14 81 -218 0
-14 81 218 0
14 -81 218 0
-14 -81 -218 0
14 -285 0
81 -285 0
-14 -81 285 0
15 82 -219 0
-15 82 219 0
15 -82 219 0
-15 -82 -219 0
15 -286 0
82 -286 0
-15 -82 286 0
16 83 -220 0
-16 83 220 0
16 -83 220 0
-16 -83 -220 0
16 -287 0
83 -287 0
-16 -83 287 0
17 84 -221 0
-17 84 221 0
17 -84 221 0
-17 -84 -221 0
17 -288 0
84 -288 0
-17 -84 288 0
18 85 -222 0
-18 85 222 0
18 -85 222 0
-18 -85 -222 0
18 -289 0
85 -289 0
-18 -85 289 0
19 86 -223 0
-19 86 223 0
19 -86 223 0
-19 -86 -223 0
19 -290 0
86 -290 0
-19 -86 290 0
20 87 -224 0
-20 87 224 0
20 -87 224 0
-20 -87 -224 0
20 -291 0
87 -291 0
-20 -87 291 0
21 88 -225 0
-21 88 225 0
21 -88 225 0
-21 -88 -225 0
21 -292 0
88 -292 0
-21 -88 292 0
22 89 -226 0
-22 89 226 0
22 -89 226 0
-22 -89 -226 0
22 -293 0
89 -293 0
-22 -89 293 0
23 90 -227 0
-23 90 227 0
23 -90 227 0
-23 -90 -227 0
23 -294 0
90 -294 0
-23 -90 294 0
24 91 -228 0
-24 91 228 0
24 -91 228 0
-24 -91 -228 0
24 -295 0
91 -295 0
-24 -91 295 0
25 92 -229 0
-25 92 229 0
25 -92 229 0
-25 -92 -229 0
25 -296 0
92 -296 0
-25 -92 296 0
26 93 -230 0
-26 93 230 0
26 -93 230 0
-26 -93 -230 0
26 -297 0
93 -297 0
-26 -93 297 0
27 94 -231 0
-27 94 231 0
27 -94 231 0
-27 -94 -231 0
27 -298 0
94 -298 0
-27 -94 298 0
28 95 -232 0
-28 95 232 0
28 -95 232 0
-28 -95 -232 0
28 -299 0
95 -299 0
-28 -95 299 0
29 96 -233 0
-29 96 233 0
29 -96 233 0
-29 -96 -233 0
29 -300 0
96 -300 0
-29 -96 300 0
30 97 -234 0
-30 97 234 0
30 -97 234 0
-30 -97 -234 0
30 -301 0
97 -301 0
-30 -97 301 0
31 98 -235 0
-31 98 235 0
31 -98 235 0
-31 -98 -235 0
31 -302 0
98 -302 0
-31 -98 302 0
32 99 -236 0
-32 99 236 0
32 -99 236 0
-32 -99 -236 0
32 -303 0
99 -303 0
-32 -99 303 0
33 100 -237 0
-33 100 237 0
33 -100 237 0
-33 -100 -237 0
33 -304 0
100 -304 0
-33 -100 304 0
34 101 -238 0
-34 101 238 0
34 -101 238 0
-34 -101 -238 0
34 -305 0
101 -305 0
-34 -101 305 0
35 102 -239 0
-35 102 239 0
35 -102 239 0
-35 -102 -239 0
35 -306 0
102 -306 0
-35 -102 306 0
36 103 -240 0
-36 103 240 0
36 -103 240 0
-36 -103 -240 0
36 -307 0
103 -307 0
-36 -103 307 0
37 104 -241 0
-37 104 241 0
37 -104 241 0
-37 -104 -241 0
37 -308 0
104 -308 0
-37 -104 308 0
38 105 -242 0
-38 105 242 0
38 -105 242 0
-38 -105 -242 0
38 -309 0
105 -309 0
-38 -105 309 0
39 106 -243 0
-39 106 243 0
39 -106 243 0
-39 -106 -243 0
39 -310 0
106 -310 0
-39 -106 310 0
40 107 -244 0
-40 107 244 0
40 -107 244 0
-40 -107 -244 0
40 -311 0
107 -311 0
-40 -107 311 0
41 108 -245 0
-41 108 245 0
41 -108 245 0
-41 -108 -245 0
41 -312 0
108 -312 0
-41 -108 312 0
42 109 -246 0
-42 109 246 0
42 -109 246 0
-42 -109 -246 0
42 -313 0
109 -313 0
-42 -109 313 0
43 110 -247 0
-43 110 247 0
43 -110 247 0
-43 -110 -247 0
43 -314 0
110 -314 0
-43 -110 314 0
44 111 -248 0
-44 111 248 0
44 -111 248 0
-44 -111 -248 0
44 -315 0
111 -315 0
-44 -111 315 0
45 112 -249 0
-45 112 249 0
45 -112 249 0
-45 -112 -249 0
45 -316 0
112 -316 0
-45 -112 316 0
46 113 -250 0
-46 113 250 0
46 -113 250 0
-46 -113 -250 0
46 -317 0
113 -317 0
-46 -113 317 0
47 114 -251 0
-47 114 251 0
47 -114 251 0
-47 -114 -251 0
47 -318 0
114 -318 0
-47 -114 318 0
48 115 -252 0
-48 115 252 0
48 -115 252 0
-48 -115 -252 0
48 -319 0
115 -319 0
-48 -115 319 0
49 116 -253 0
-49 116 253 0
49 -116 253 0
-49 -116 -253 0
49 -320 0
116 -320 0
-49 -116 320 0
50 117 -254 0
-50 117 254 0
50 -117 254 0
-50 -117 -254 0
50 -321 0
117 -321 0
-50 -117 321 0
51 118 -255 0
-51 118 255 0
51 -118 255 0
-51 -118 -255 0
51 -322 0
118 -322 0
-51 -118 322 0
52 119 -256 0
-52 119 256 0
52 -119 256 0
-52 -119 -256 0
52 -323 0
119 -323 0
-52 -119 323 0
53 120 -257 0
-53 120 257 0
53 -120 257 0
-53 -120 -257 0
53 -324 0
120 -324 0
-53 -120 324 0
54 121 -258 0
-54 121 258 0
54 -121 258 0
-54 -121 -258 0
54 -325 0
121 -325 0
-54 -121 325 0
55 122 -259 0
-55 122 259 0
55 -122 259 0
-55 -122 -259 0
55 -326 0
122 -326 0
-55 -122 326 0
56 123 -260 0
-56 123 260 0
56 -123 260 0
-56 -123 -260 0
56 -327 0
123 -327 0
-56 -123 327 0
57 124 -261 0
-57 124 261 0
57 -124 261 0
-57 -124 -261 0
57 -328 0
124 -328 0
-57 -124 328 0
58 125 -262 0
-58 125 262 0
58 -125 262 0
-58 -125 -262 0
58 -329 0
125 -329 0
-58 -125 329 0
59 126 -263 0
-59 126 263 0
59 -126 263 0
-59 -126 -263 0
59 -330 0
126 -330 0
-59 -126 330 0
60 127 -264 0
-60 127 264 0
60 -127 264 0
-60 -127 -264 0
60 -331 0
127 -331 0
-60 -127 331 0
61 128 -265 0
-61 128 265 0
61 -128 265 0
-61 -128 -265 0
61 -332 0
128 -332 0
-61 -128 332 0
62 129 -266 0
-62 129 266 0
62 -129 266 0
-62 -129 -266 0
62 -333 0
129 -333 0
-62 -129 333 0
63 130 -267 0
-63 130 267 0
63 -130 267 0
-63 -130 -267 0
63 -334 0
130 -334 0
-63 -130 334 0
64 131 -268 0
-64 131 268 0
64 -131 268 0
-64 -131 -268 0
64 -335 0
131 -335 0
-64 -131 335 0
65 132 -269 0
-65 132 269 0
65 -132 269 0
-65 -132 -269 0
65 -336 0
132 -336 0
-65 -132 336 0
66 133 -270 0
-66 133 270 0
66 -133 270 0
-66 -133 -270 0
66 -337 0
133 -337 0
-66 -133 337 0
67 134 -271 0
-67 134 271 0
67 -134 271 0
-67 -134 -271 0
67 -338 0
134 -338 0
-67 -134 338 0
203 -406 0
205 -406 0
-203 -205 406 0
203 -407 0
205 -407 0
206 -407 0
-203 -205 -206 407 0
272 -408 0
206 -408 0
-272 -206 408 0
203 -409 0
205 -409 0
206 -409 0
207 -409 0
-203 -205 -206 -207 409 0
272 -410 0
206 -410 0
207 -410 0
-272 -206 -207 410 0
273 -411 0
207 -411 0
-273 -207 411 0
203 -412 0
205 -412 0
206 -412 0
207 -412 0
208 -412 0
-203 -205 -206 -207 -208 412 0
272 -413 0
206 -413 0
207 -413 0
208 -413 0
-272 -206 -207 -208 413 0
273 -414 0
207 -414 0
208 -414 0
-273 -207 -208 414 0
274 -415 0
208 -415 0
-274 -208 415 0
-272 339 0
-406 339 0
272 406 -339 0
-273 340 0
-407 340 0
-408 340 0
273 407 408 -340 0
-274 341 0
-409 341 0
-410 341 0
-411 341 0
274 409 410 411 -341 0
-275 342 0
-412 342 0
-413 342 0
-414 342 0
-415 342 0
275 412 413 414 415 -342 0
342 -416 0
209 -416 0
-342 -209 416 0
342 -417 0
209 -417 0
210 -417 0
-342 -209 -210 417 0
276 -418 0
210 -418 0
-276 -210 418 0
342 -419 0
209 -419 0
210 -419 0
211 -419 0
-342 -209 -210 -211 419 0
276 -420 0
210 -420 0
211 -420 0
-276 -210 -211 420 0
277 -421 0
211 -421 0
-277 -211 421 0
342 -422 0
209 -422 0
210 -422 0
211 -422 0
212 -422 0
-342 -209 -210 -211 -212 422 0
276 -423 0
210 -423 0
211 -423 0
212 -423 0
-276 -210 -211 -212 423 0
277 -424 0
211 -424 0
212 -424 0
-277 -211 -212 424 0
278 -425 0
212 -425 0
-278 -212 425 0
-276 343 0
-416 343 0
276 416 -343 0
-277 344 0
-417 344 0
-418 344 0
277 417 418 -344 0
-278 345 0
-419 345 0
-420 345 0
-421 345 0
278 419 420 421 -345 0
-279 346 0
-422 346 0
-423 346 0
-424 346 0
-425 346 0
279 422 423 424 425 -346 0
346 -426 0
213 -426 0
-346 -213 426 0
346 -427 0
213 -427 0
214 -427 0
-346 -213 -214 427 0
280 -428 0
214 -428 0
-280 -214 428 0
346 -429 0
213 -429 0
214 -429 0
215 -429 0
-346 -213 -214 -215 429 0
280 -430 0
214 -430 0
215 -430 0
-280 -214 -215 430 0
281 -431 0
215 -431 0
-281 -215 431 0
346 -432 0
213 -432 0
214 -432 0
215 -432 0
216 -432 0
-346 -213 -214 -215 -216 432 0
280 -433 0
214 -433 0
215 -433 0
216 -433 0
-280 -214 -215 -216 433 0
281 -434 0
215 -434 0
216 -434 0
-281 -215 -216 434 0
282 -435 0
216 -435 0
-282 -216 435 0
-280 347 0
-426 347 0
280 426 -347 0
-281 348 0
-427 348 0
-428 348 0
281 427 428 -348 0
-282 349 0
-429 349 0
-430 349 0
-431 349 0
282 429 430 431 -349 0
-283 350 0
-432 350 0
-433 350 0
-434 350 0
-435 350 0
283 432 433 434 435 -350 0
350 -436 0
217 -436 0
-350 -217 436 0
350 -437 0
217 -437 0
218 -437 0
-350 -217 -218 437 0
284 -438 0
218 -438 0
-284 -218 438 0
350 -439 0
217 -439 0
218 -439 0
219 -439 0
-350 -217 -218 -219 439 0
284 -440 0
218 -440 0
219 -440 0
-284 -218 -219 440 0
285 -441 0
219 -441 0
-285 -219 441 0
350 -442 0
217 -442 0
218 -442 0
219 -442 0
220 -442 0
-350 -217 -218 -219 -220 442 0
284 -443 0
218 -443 0
219 -443 0
220 -443 0
-284 -218 -219 -220 443 0
285 -444 0
219 -444 0
220 -444 0
-285 -219 -220 444 0
286 -445 0
220 -445 0
-286 -220 445 0
-284 351 0
-436 351 0
284 436 -351 0
-285 352 0
-437 352 0
-438 352 0
285 437 438 -352 0
-286 353 0
-439 353 0
-440 353 0
-441 353 0
286 439 440 441 -353 0
-287 354 0
-442 354 0
-443 354 0
-444 354 0
-445 354 0
287 442 443 444 445 -354 0
354 -446 0
221 -446 0
-354 -221 446 0
354 -447 0
221 -447 0
222 -447 0
-354 -221 -222 447 0
288 -448 0
222 -448 0
-288 -222 448 0
354 -449 0
221 -449 0
222 -449 0
223 -449 0
-354 -221 -222 -223 449 0
288 -450 0
222 -450 0
223 -450 0
-288 -222 -223 450 0
289 -451 0
223 -451 0
-289 -223 451 0
354 -452 0
221 -452 0
222 -452 0
223 -452 0
224 -452 0
-354 -221 -222 -223 -224 452 0
288 -453 0
222 -453 0
223 -453 0
224 -453 0
-288 -222 -223 -224 453 0
289 -454 0
223 -454 0
224 -454 0
-289 -223 -224 454 0
290 -455 0
224 -455 0
-290 -224 455 0
-288 355 0
-446 355 0
288 446 -355 0
-289 356 0
-447 356 0
-448 356 0
289 447 448 -356 0
-290 357 0
-449 357 0
-450 357 0
-451 357 0
290 449 450 451 -357 0
-291 358 0
-452 358 0
-453 358 0
-454 358 0
-455 358 0
291 452 453 454 455 -358 0
358 -456 0
225 -456 0
-358 -225 456 0
358 -457 0
225 -457 0
226 -457 0
-358 -225 -226 457 0
292 -458 0
226 -458 0
-292 -226 458 0
358 -459 0
225 -459 0
226 -459 0
227 -459 0
-358 -225 -226 -227 459 0
292 -460 0
226 -460 0
227 -460 0
-292 -226 -227 460 0
293 -461 0
227 -461 0
-293 -227 461 0
358 -462 0
225 -462 0
226 -462 0
227 -462 0
228 -462 0
-358 -225 -226 -227 -228 462 0
292 -463 0
226 -463 0
227 -463 0
228 -463 0
-292 -226 -227 -228 463 0
293 -464 0
227 -464 0
228 -464 0
-293 -227 -228 464 0
294 -465 0
228 -465 0
-294 -228 465 0
-292 359 0
-456 359 0
292 456 -359 0
-293 360 0
-457 360 0
-458 360 0
293 457 458 -360 0
-294 361 0
-459 361 0
-460 361 0
-461 361 0
294 459 460 461 -361 0
-295 362 0
-462 362 0
-463 362 0
-464 362 0
-465 362 0
295 462 463 464 465 -362 0
362 -466 0
229 -466 0
-362 -229 466 0
362 -467 0
229 -467 0
230 -467 0
-362 -229 -230 467 0
296 -468 0
230 -468 0
-296 -230 468 0
362 -469 0
229 -469 0
230 -469 0
231 -469 0
-362 -229 -230 -231 469 0
296 -470 0
230 -470 0
231 -470 0
-296 -230 -231 470 0
297 -471 0
231 -471 0
-297 -231 471 0
362 -472 0
229 -472 0
230 -472 0
231 -472 0
232 -472 0
-362 -229 -230 -231 -232 472 0
296 -473 0
230 -473 0
231 -473 0
232 -473 0
-296 -230 -231 -232 473 0
297 -474 0
231 -474 0
232 -474 0
-297 -231 -232 474 0
298 -475 0
232 -475 0
-298 -232 475 0
-296 363 0
-466 363 0
296 466 -363 0
-297 364 0
-467 364 0
-468 364 0
297 467 468 -364 0
-298 365 0
-469 365 0
-470 365 0
-471 365 0
298 469 470 471 -365 0
-299 366 0
-472 366 0
-473 366 0
-474 366 0
-475 366 0
299 472 473 474 475 -366 0
366 -476 0
233 -476 0
-366 -233 476 0
366 -477 0
233 -477 0
234 -477 0
-366 -233 -234 477 0
300 -478 0
234 -478 0
-300 -234 478 0
366 -479 0
233 -479 0
234 -479 0
235 -479 0
-366 -233 -234 -235 479 0
300 -480 0
234 -480 0
235 -480 0
-300 -234 -235 480 0
301 -481 0
235 -481 0
-301 -235 481 0
366 -482 0
233 -482 0
234 -482 0
235 -482 0
236 -482 0
-366 -233 -234 -235 -236 482 0
300 -483 0
234 -483 0
235 -483 0
236 -483 0
-300 -234 -235 -236 483 0
301 -484 0
235 -484 0
236 -484 0
-301 -235 -236 484 0
302 -485 0
236 -485 0
-302 -236 485 0
-300 367 0
-476 367 0
300 476 -367 0
-301 368 0
-477 368 0
-478 368 0
301 477 478 -368 0
-302 369 0
-479 369 0
-480 369 0
-481 369 0
302 479 480 481 -369 0
-303 370 0
-482 370 0
-483 370 0
-484 370 0
-485 370 0
303 482 483 484 485 -370 0
370 -486 0
237 -486 0
-370 -237 486 0
370 -487 0
237 -487 0
238 -487 0
-370 -237 -238 487 0
304 -488 0
238 -488 0
-304 -238 488 0
370 -489 0
237 -489 0
238 -489 0
239 -489 0
-370 -237 -238 -239 489 0
304 -490 0
238 -490 0
239 -490 0
-304 -238 -239 490 0
305 -491 0
239 -491 0
-305 -239 491 0
370 -492 0
237 -492 0
238 -492 0
239 -492 0
240 -492 0
-370 -237 -238 -239 -240 492 0
304 -493 0
238 -493 0
239 -493 0
240 -493 0
-304 -238 -239 -240 493 0
305 -494 0
239 -494 0
240 -494 0
-305 -239 -240 494 0
306 -495 0
240 -495 0
-306 -240 495 0
-304 371 0
-486 371 0
304 486 -371 0
-305 372 0
-487 372 0
-488 372 0
305 487 488 -372 0
-306 373 0
-489 373 0
-490 373 0
-491 373 0
306 489 490 491 -373 0
-307 374 0
-492 374 0
-493 374 0
-494 374 0
-495 374 0
307 492 493 494 495 -374 0
374 -496 0
241 -496 0
-374 -241 496 0
374 -497 0
241 -497 0
242 -497 0
-374 -241 -242 497 0
308 -498 0
242 -498 0
-308 -242 498 0
374 -499 0
241 -499 0
242 -499 0
243 -499 0
-374 -241 -242 -243 499 0
308 -500 0
242 -500 0
243 -500 0
-308 -242 -243 500 0
309 -501 0
243 -501 0
-309 -243 501 0
374 -502 0
241 -502 0
242 -502 0
243 -502 0
244 -502 0
-374 -241 -242 -243 -244 502 0
308 -503 0
242 -503 0
243 -503 0
244 -503 0
-308 -242 -243 -244 503 0
309 -504 0
243 -504 0
244 -504 0
-309 -243 -244 504 0
310 -505 0
244 -505 0
-310 -244 505 0
-308 375 0
-496 375 0
308 496 -375 0
-309 376 0
-497 376 0
-498 376 0
309 497 498 -376 0
-310 377 0
-499 377 0
-500 377 0
-501 377 0
310 499 500 501 -377 0
-311 378 0
-502 378 0
-503 378 0
-504 378 0
-505 378 0
311 502 503 504 505 -378 0
378 -506 0
245 -506 0
-378 -245 506 0
378 -507 0
245 -507 0
246 -507 0
-378 -245 -246 507 0
312 -508 0
246 -508 0
-312 -246 508 0
378 -509 0
245 -509 0
246 -509 0
247 -509 0
-378 -245 -246 -247 509 0
312 -510 0
246 -510 0
247 -510 0
-312 -246 -247 510 0
313 -511 0
247 -511 0
-313 -247 511 0
378 -512 0
245 -512 0
246 -512 0
247 -512 0
248 -512 0
-378 -245 -246 -247 -248 512 0
312 -513 0
246 -513 0
247 -513 0
248 -513 0
-312 -246 -247 -248 513 0
313 -514 0
247 -514 0
248 -514 0
-313 -247 -248 514 0
314 -515 0
248 -515 0
-314 -248 515 0
-312 379 0
-506 379 0
312 506 -379 0
-313 380 0
-507 380 0
-508 380 0
313 507 508 -380 0
-314 381 0
-509 381 0
-510 381 0
-511 381 0
314 509 510 511 -381 0
-315 382 0
-512 382 0
-513 382 0
-514 382 0
-515 382 0
315 512 513 514 515 -382 0
382 -516 0
249 -516 0
-382 -249 516 0
382 -517 0
249 -517 0
250 -517 0
-382 -249 -250 517 0
316 -518 0
250 -518 0
-316 -250 518 0
382 -519 0
249 -519 0
250 -519 0
251 -519 0
-382 -249 -250 -251 519 0
316 -520 0
250 -520 0
251 -520 0
-316 -250 -251 520 0
317 -521 0
251 -521 0
-317 -251 521 0
382 -522 0
249 -522 0
250 -522 0
251 -522 0
252 -522 0
-382 -249 -250 -251 -252 522 0
316 -523 0
250 -523 0
251 -523 0
252 -523 0
-316 -250 -251 -252 523 0
317 -524 0
251 -524 0
252 -524 0
-317 -251 -252 524 0
318 -525 0
252 -525 0
-318 -252 525 0
-316 383 0
-516 383 0
316 516 -383 0
-317 384 0
-517 384 0
-518 384 0
317 517 518 -384 0
-318 385 0
-519 385 0
-520 385 0
-521 385 0
318 519 520 521 -385 0
-319 386 0
-522 386 0
-523 386 0
-524 386 0
-525 386 0
319 522 523 524 525 -386 0
386 -526 0
253 -526 0
-386 -253 526 0
386 -527 0
253 -527 0
254 -527 0
-386 -253 -254 527 0
320 -528 0
254 -528 0
-320 -254 528 0
386 -529 0
253 -529 0
254 -529 0
255 -529 0
-386 -253 -254 -255 529 0
320 -530 0
254 -530 0
255 -530 0
-320 -254 -255 530 0
321 -531 0
255 -531 0
-321 -255 531 0
386 -532 0
253 -532 0
254 -532 0
255 -532 0
256 -532 0
-386 -253 -254 -255 -256 532 0
320 -533 0
254 -533 0
255 -533 0
256 -533 0
-320 -254 -255 -256 533 0
321 -534 0
255 -534 0
256 -534 0
-321 -255 -256 534 0
322 -535 0
256 -535 0
-322 -256 535 0
-320 387 0
-526 387 0
320 526 -387 0
-321 388 0
-527 388 0
-528 388 0
321 527 528 -388 0
-322 389 0
-529 389 0
-530 389 0
-531 389 0
322 529 530 531 -389 0
-323 390 0
-532 390 0
-533 390 0
-534 390 0
-535 390 0
323 532 533 534 535 -390 0
390 -536 0
257 -536 0
-390 -257 536 0
390 -537 0
257 -537 0
258 -537 0
-390 -257 -258 537 0
324 -538 0
258 -538 0
-324 -258 538 0
390 -539 0
257 -539 0
258 -539 0
259 -539 0
-390 -257 -258 -259 539 0
324 -540 0
258 -540 0
259 -540 0
-324 -258 -259 540 0
325 -541 0
259 -541 0
-325 -259 541 0
390 -542 0
257 -542 0
258 -542 0
259 -542 0
260 -542 0
-390 -257 -258 -259 -260 542 0
324 -543 0
258 -543 0
259 -543 0
260 -543 0
-324 -258 -259 -260 543 0
325 -544 0
259 -544 0
260 -544 0
-325 -259 -260 544 0
326 -545 0
260 -545 0
-326 -260 545 0
-324 391 0
-536 391 0
324 536 -391 0
-325 392 0
-537 392 0
-538 392 0
325 537 538 -392 0
-326 393 0
-539 393 0
-540 393 0
-541 393 0
326 539 540 541 -393 0
-327 394 0
-542 394 0
-543 394 0
-544 394 0
-545 394 0
327 542 543 544 545 -394 0
394 -546 0
261 -546 0
-394 -261 546 0
394 -547 0
261 -547 0
262 -547 0
-394 -261 -262 547 0
328 -548 0
262 -548 0
-328 -262 548 0
394 -549 0
261 -549 0
262 -549 0
263 -549 0
-394 -261 -262 -263 549 0
328 -550 0
262 -550 0
263 -550 0
-328 -262 -263 550 0
329 -551 0
263 -551 0
-329 -263 551 0
394 -552 0
261 -552 0
262 -552 0
263 -552 0
264 -552 0
-394 -261 -262 -263 -264 552 0
328 -553 0
262 -553 0
263 -553 0
264 -553 0
-328 -262 -263 -264 553 0
329 -554 0
263 -554 0
264 -554 0
-329 -263 -264 554 0
330 -555 0
264 -555 0
-330 -264 555 0
-328 395 0
-546 395 0
328 546 -395 0
-329 396 0
-547 396 0
-548 396 0
329 547 548 -396 0
-330 397 0
-549 397 0
-550 397 0
-551 397 0
330 549 550 551 -397 0
-331 398 0
-552 398 0
-553 398 0
-554 398 0
-555 398 0
331 552 553 554 555 -398 0
398 -556 0
265 -556 0
-398 -265 556 0
398 -557 0
265 -557 0
266 -557 0
-398 -265 -266 557 0
332 -558 0
266 -558 0
-332 -266 558 0
398 -559 0
265 -559 0
266 -559 0
267 -559 0
-398 -265 -266 -267 559 0
332 -560 0
266 -560 0
267 -560 0
-332 -266 -267 560 0
333 -561 0
267 -561 0
-333 -267 561 0
398 -562 0
265 -562 0
266 -562 0
267 -562 0
268 -562 0
-398 -265 -266 -267 -268 562 0
332 -563 0
266 -563 0
267 -563 0
268 -563 0
-332 -266 -267 -268 563 0
333 -564 0
267 -564 0
268 -564 0
-333 -267 -268 564 0
334 -565 0
268 -565 0
-334 -268 565 0
-332 399 0
-556 399 0
332 556 -399 0
-333 400 0
-557 400 0
-558 400 0
333 557 558 -400 0
-334 401 0
-559 401 0
-560 401 0
-561 401 0
334 559 560 561 -401 0
-335 402 0
-562 402 0
-563 402 0
-564 402 0
-565 402 0
335 562 563 564 565 -402 0
402 -566 0
269 -566 0
-402 -269 566 0
402 -567 0
269 -567 0
270 -567 0
-402 -269 -270 567 0
336 -568 0
270 -568 0
-336 -270 568 0
402 -569 0
269 -569 0
270 -569 0
271 -569 0
-402 -269 -270 -271 569 0
336 -570 0
270 -570 0
271 -570 0
-336 -270 -271 570 0
337 -571 0
271 -571 0
-337 -271 571 0
-336 403 0
-566 403 0
336 566 -403 0
-337 404 0
-567 404 0
-568 404 0
337 567 568 -404 0
-338 405 0
-569 405 0
-570 405 0
-571 405 0
338 569 570 571 -405 0
205 203 -135 0
-205 203 135 0
205 -203 135 0
-205 -203 -135 0
206 339 -136 0
-206 339 136 0
206 -339 136 0
-206 -339 -136 0
207 340 -137 0
-207 340 137 0
207 -340 137 0
-207 -340 -137 0
208 341 -138 0
-208 341 138 0
208 -341 138 0
-208 -341 -138 0
209 342 -139 0
-209 342 139 0
209 -342 139 0
-209 -342 -139 0
210 343 -140 0
-210 343 140 0
210 -343 140 0
-210 -343 -140 0
211 344 -141 0
-211 344 141 0
211 -344 141 0
-211 -344 -141 0
212 345 -142 0
-212 345 142 0
212 -345 142 0
-212 -345 -142 0
213 346 -143 0
-213 346 143 0
213 -346 143 0
-213 -346 -143 0
214 347 -144 0
-214 347 144 0
214 -347 144 0
-214 -347 -144 0
215 348 -145 0
-215 348 145 0
215 -348 145 0
-215 -348 -145 0
216 349 -146 0
-216 349 146 0
216 -349 146 0
-216 -349 -146 0
217 350 -147 0
-217 350 147 0
217 -350 147 0
-217 -350 -147 0
218 351 -148 0
-218 351 148 0
218 -351 148 0
-218 -351 -148 0
219 352 -149 0
-219 352 149 0
219 -352 149 0
-219 -352 -149 0
220 353 -150 0
-220 353 150 0
220 -353 150 0
-220 -353 -150 0
221 354 -151 0
-221 354 151 0
221 -354 151 0
-221 -354 -151 0
222 355 -152 0
-222 355 152 0
222 -355 152 0
-222 -355 -152 0
223 356 -153 0
-223 356 153 0
223 -356 153 0
-223 -356 -153 0
224 357 -154 0
-224 357 154 0
224 -357 154 0
-224 -357 -154 0
225 358 -155 0
-225 358 155 0
225 -358 155 0
-225 -358 -155 0
226 359 -156 0
-226 359 156 0
226 -359 156 0
-226 -359 -156 0
227 360 -157 0
-227 360 157 0
227 -360 157 0
-227 -360 -157 0
228 361 -158 0
-228 361 158 0
228 -361 158 0
-228 -361 -158 0
229 362 -159 0
-229 362 159 0
229 -362 159 0
-229 -362 -159 0
230 363 -160 0
-230 363 160 0
230 -363 160 0
-230 -363 -160 0
231 364 -161 0
-231 364 161 0
231 -364 161 0
-231 -364 -161 0
232 365 -162 0
-232 365 162 0
232 -365 162 0
-232 -365 -162 0
233 366 -163 0
-233 366 163 0
233 -366 163 0
-233 -366 -163 0
234 367 -164 0
-234 367 164 0
234 -367 164 0
-234 -367 -164 0
235 368 -165 0
-235 368 165 0
235 -368 165 0
-235 -368 -165 0
236 369 -166 0
-236 369 166 0
236 -369 166 0
-236 -369 -166 0
237 370 -167 0
-237 370 167 0
237 -370 167 0
-237 -370 -167 0
238 371 -168 0
-238 371 168 0
238 -371 168 0
-238 -371 -168 0
239 372 -169 0
-239 372 169 0
239 -372 169 0
-239 -372 -169 0
240 373 -170 0
-240 373 170 0
240 -373 170 0
-240 -373 -170 0
241 374 -171 0
-241 374 171 0
241 -374 171 0
-241 -374 -171 0
242 375 -172 0
-242 375 172 0
242 -375 172 0
-242 -375 -172 0
243 376 -173 0
-243 376 173 0
243 -376 173 0
-243 -376 -173 0
244 377 -174 0
-244 377 174 0
244 -377 174 0
-244 -377 -174 0
245 378 -175 0
-245 378 175 0
245 -378 175 0
-245 -378 -175 0
246 379 -176 0
-246 379 176 0
246 -379 176 0
-246 -379 -176 0
247 380 -177 0
-247 380 177 0
247 -380 177 0
-247 -380 -177 0
248 381 -178 0
-248 381 178 0
248 -381 178 0
-248 -381 -178 0
249 382 -179 0
-249 382 179 0
249 -382 179 0
-249 -382 -179 0
250 383 -180 0
-250 383 180 0
250 -383 180 0
-250 -383 -180 0
251 384 -181 0
-251 384 181 0
251 -384 181 0
-251 -384 -181 0
252 385 -182 0
-252 385 182 0
252 -385 182 0
-252 -385 -182 0
253 386 -183 0
-253 386 183 0
253 -386 183 0
-253 -386 -183 0
254 387 -184 0
-254 387 184 0
254 -387 184 0
-254 -387 -184 0
255 388 -185 0
-255 388 185 0
255 -388 185 0
-255 -388 -185 0
256 389 -186 0
-256 389 186 0
256 -389 186 0
-256 -389 -186 0
257 390 -187 0
-257 390 187 0
257 -390 187 0
-257 -390 -187 0
258 391 -188 0
-258 391 188 0
258 -391 188 0
-258 -391 -188 0
259 392 -189 0
-259 392 189 0
259 -392 189 0
-259 -392 -189 0
260 393 -190 0
-260 393 190 0
260 -393 190 0
-260 -393 -190 0
261 394 -191 0
-261 394 191 0
261 -394 191 0
-261 -394 -191 0
262 395 -192 0
-262 395 192 0
262 -395 192 0
-262 -395 -192 0
263 396 -193 0
-263 396 193 0
263 -396 193 0
-263 -396 -193 0
264 397 -194 0
-264 397 194 0
264 -397 194 0
-264 -397 -194 0
265 398 -195 0
-265 398 195 0
265 -398 195 0
-265 -398 -195 0
266 399 -196 0
-266 399 196 0
266 -399 196 0
-266 -399 -196 0
267 400 -197 0
-267 400 197 0
267 -400 197 0
-267 -400 -197 0
268 401 -198 0
-268 401 198 0
268 -401 198 0
-268 -401 -198 0
269 402 -199 0
-269 402 199 0
269 -402 199 0
-269 -402 -199 0
270 403 -200 0
-270 403 200 0
270 -403 200 0
-270 -403 -200 0
271 404 -201 0
-271 404 201 0
271 -404 201 0
-271 -404 -201 0
405 -202 0
-405 202 0
